db/inputs/210213501275212821527153230890835788.smt2
(set-logic QF_FP)
(declare-const x0 (_ FloatingPoint 11 53))
(declare-const x1 (_ FloatingPoint 11 53))
(declare-const x2 (_ FloatingPoint 11 53))
(declare-const x3 (_ FloatingPoint 11 53))
(declare-const x4 (_ FloatingPoint 11 53))
(declare-const x5 (_ FloatingPoint 11 53))
(declare-const x6 (_ FloatingPoint 11 53))
(declare-const x7 (_ FloatingPoint 11 53))
(declare-const x8 (_ FloatingPoint 11 53))
(declare-const x9 (_ FloatingPoint 11 53))
(declare-const x10 (_ FloatingPoint 11 53))
(declare-const x11 (_ FloatingPoint 11 53))
(declare-const x12 (_ FloatingPoint 11 53))
(declare-const x13 (_ FloatingPoint 11 53))
(assert (fp.eq (fp.neg (fp.add RNE (fp.mul RNE x11 x0) (fp.sub RNE x12 x7))) (fp.mul RNE (fp.mul RNE (fp.sub RNE x12 x11) (fp.sub RNE x11 x6)) (fp.neg (fp.neg x3)))))
(assert (fp.eq (fp.sub RNE (fp.mul RNE (fp.add RNE x13 x5) (fp.mul RNE x9 x11)) (fp.mul RNE (fp.sub RNE x2 x4) (fp.add RNE x8 x9))) (fp.add RNE (fp.neg (fp.sub RNE x6 x4)) (fp.mul RNE (fp.add RNE x10 x4) (fp.mul RNE x4 x2)))))
(assert (fp.geq (fp.neg (fp.add RNE (fp.mul RNE x7 x7) (fp.neg x8))) (fp.div RNE (fp.mul RNE (fp.neg x4) (fp.div RNE x3 x5)) (fp.sub RNE (fp.neg x9) (fp.add RNE x3 x5)))))
(assert (fp.eq (fp.div RNE (fp.add RNE (fp.div RNE x0 x11) (fp.sub RNE x4 x2)) (fp.sub RNE (fp.mul RNE x11 x10) (fp.add RNE x4 x10))) (fp.neg (fp.sub RNE (fp.neg x8) (fp.neg x1)))))
(assert (fp.leq (fp.neg (fp.div RNE (fp.div RNE x2 x0) (fp.add RNE x1 x13))) (fp.sub RNE (fp.sub RNE (fp.sub RNE x6 x7) (fp.div RNE x4 x6)) (fp.div RNE (fp.div RNE x0 x11) (fp.div RNE x3 x8)))))
(assert (fp.leq (fp.sub RNE (fp.neg (fp.add RNE x1 x1)) (fp.mul RNE (fp.div RNE x4 x1) (fp.mul RNE x7 x13))) (fp.neg (fp.add RNE (fp.neg x10) (fp.mul RNE x7 x2)))))
(assert (fp.eq (fp.add RNE (fp.mul RNE (fp.mul RNE x7 x13) (fp.add RNE x8 x4)) (fp.add RNE (fp.mul RNE x4 x0) (fp.sub RNE x12 x5))) (fp.mul RNE (fp.div RNE (fp.mul RNE x10 x4) (fp.sub RNE x10 x9)) (fp.div RNE (fp.sub RNE x8 x11) (fp.div RNE x7 x5)))))
(assert (fp.geq (fp.mul RNE (fp.neg (fp.div RNE x1 x6)) (fp.sub RNE (fp.add RNE x7 x9) (fp.sub RNE x9 x6))) (fp.sub RNE (fp.div RNE (fp.neg x4) (fp.mul RNE x12 x0)) (fp.mul RNE (fp.sub RNE x5 x1) (fp.neg x7)))))
(assert (fp.gt (fp.sub RNE (fp.neg (fp.div RNE x2 x11)) (fp.mul RNE (fp.sub RNE x4 x1) (fp.neg x8))) (fp.neg (fp.add RNE (fp.div RNE x5 x1) (fp.mul RNE x8 x5)))))
(assert (fp.eq (fp.mul RNE (fp.div RNE (fp.mul RNE x4 x6) (fp.div RNE x12 x13)) (fp.add RNE (fp.neg x1) (fp.div RNE x12 x1))) (fp.sub RNE (fp.add RNE (fp.neg x0) (fp.div RNE x6 x8)) (fp.neg (fp.div RNE x0 x3)))))
(assert (fp.lt (fp.div RNE (fp.add RNE (fp.div RNE x9 x4) (fp.sub RNE x4 x13)) (fp.neg (fp.sub RNE x6 x13))) (fp.neg (fp.add RNE (fp.add RNE x12 x1) (fp.sub RNE x1 x7)))))
(assert (fp.eq (fp.sub RNE (fp.add RNE (fp.add RNE x9 x7) (fp.add RNE x7 x8)) (fp.add RNE (fp.sub RNE x9 x5) (fp.div RNE x8 x0))) (fp.add RNE (fp.add RNE (fp.mul RNE x9 x8) (fp.neg x7)) (fp.div RNE (fp.neg x5) (fp.neg x12)))))
(assert (fp.leq (fp.sub RNE (fp.div RNE (fp.neg x13) (fp.sub RNE x2 x11)) (fp.sub RNE (fp.div RNE x7 x8) (fp.neg x8))) (fp.add RNE (fp.mul RNE (fp.sub RNE x5 x12) (fp.mul RNE x7 x6)) (fp.sub RNE (fp.add RNE x5 x12) (fp.mul RNE x6 x6)))))
(assert (fp.geq (fp.add RNE (fp.add RNE (fp.neg x7) (fp.sub RNE x0 x3)) (fp.add RNE (fp.sub RNE x3 x0) (fp.add RNE x7 x6))) (fp.div RNE (fp.mul RNE (fp.div RNE x7 x7) (fp.div RNE x0 x12)) (fp.div RNE (fp.neg x10) (fp.div RNE x3 x8)))))
(check-sat)
