db/data/210213501275212821527153230890835788.z3.out
-------------------
2500.316520648
